# Objective value = 52
WA1n 0
WA1p 0
WA2n 0
WA2p 1
WB1n 0
WB1p 0
WB2n 0
WB2p 1
WC1n 0
WC1p 1
WD1n 0
WD1p 1
WE1n 0
WE1p 1
WF1n 3
WF1p 0
WF2n 1
WF2p 0
WG1n 4
WG1p 0
WG2n 1
WG2p 0
WH1n 0
WH1p 4
WH2n 0
WH2p 1
WI1n 0
WI1p 4
WI2n 0
WI2p 1
WJ1n 17
WJ1p 0
WT1n 3
WT1p 0
WT2n 1
WT2p 0
5 7
a 0
b 1
c 0
d 1
e 1
f 1
g 1
h 0
i 0
j 0
k 0
l 1
m 1
n 1
o 1
p 0
q 0
r 0
